(set-logic QF_LRA)
(declare-fun X0 () Real )
(declare-fun Y0 () Real )
(declare-fun X1 () Real )
(declare-fun Y1 () Real )
(declare-fun X2 () Real )
(declare-fun Y2 () Real )
(declare-fun X3 () Real )
(declare-fun Y3 () Real )
(declare-fun X4 () Real )
(declare-fun Y4 () Real )
(declare-fun X5 () Real )
(declare-fun Y5 () Real )
(declare-fun X6 () Real )
(declare-fun Y6 () Real )
(declare-fun X7 () Real )
(declare-fun Y7 () Real )
(declare-fun X8 () Real )
(declare-fun Y8 () Real )
(declare-fun X9 () Real )
(declare-fun Y9 () Real )
(declare-fun X10 () Real )
(declare-fun Y10 () Real )
(declare-fun X11 () Real )
(declare-fun Y11 () Real )
(declare-fun X12 () Real )
(declare-fun Y12 () Real )
(declare-fun X13 () Real )
(declare-fun Y13 () Real )
(declare-fun X14 () Real )
(declare-fun Y14 () Real )
(declare-fun Z () Real )
(declare-fun k () Real )
(assert (let
(( $goal (>= Z k) ))
(let
((
$phi ( and 
( or ( <= ( + X0 30 ) X1 )  ( <= ( + X1 10 ) X0 )  ( <= ( + Y0 60 ) Y1 )  ( <= ( + Y1 54 ) Y0 )  )
( or ( <= ( + X0 30 ) X2 )  ( <= ( + X2 69 ) X0 )  ( <= ( + Y0 60 ) Y2 )  ( <= ( + Y2 24 ) Y0 )  )
( or ( <= ( + X0 30 ) X3 )  ( <= ( + X3 62 ) X0 )  ( <= ( + Y0 60 ) Y3 )  ( <= ( + Y3 52 ) Y0 )  )
( or ( <= ( + X0 30 ) X4 )  ( <= ( + X4 87 ) X0 )  ( <= ( + Y0 60 ) Y4 )  ( <= ( + Y4 26 ) Y0 )  )
( or ( <= ( + X0 30 ) X5 )  ( <= ( + X5 66 ) X0 )  ( <= ( + Y0 60 ) Y5 )  ( <= ( + Y5 55 ) Y0 )  )
( or ( <= ( + X0 30 ) X6 )  ( <= ( + X6 80 ) X0 )  ( <= ( + Y0 60 ) Y6 )  ( <= ( + Y6 99 ) Y0 )  )
( or ( <= ( + X0 30 ) X7 )  ( <= ( + X7 37 ) X0 )  ( <= ( + Y0 60 ) Y7 )  ( <= ( + Y7 49 ) Y0 )  )
( or ( <= ( + X0 30 ) X8 )  ( <= ( + X8 55 ) X0 )  ( <= ( + Y0 60 ) Y8 )  ( <= ( + Y8 98 ) Y0 )  )
( or ( <= ( + X0 30 ) X9 )  ( <= ( + X9 76 ) X0 )  ( <= ( + Y0 60 ) Y9 )  ( <= ( + Y9 26 ) Y0 )  )
( or ( <= ( + X0 30 ) X10 )  ( <= ( + X10 43 ) X0 )  ( <= ( + Y0 60 ) Y10 )  ( <= ( + Y10 52 ) Y0 )  )
( or ( <= ( + X0 30 ) X11 )  ( <= ( + X11 78 ) X0 )  ( <= ( + Y0 60 ) Y11 )  ( <= ( + Y11 41 ) Y0 )  )
( or ( <= ( + X0 30 ) X12 )  ( <= ( + X12 100 ) X0 )  ( <= ( + Y0 60 ) Y12 )  ( <= ( + Y12 73 ) Y0 )  )
( or ( <= ( + X0 30 ) X13 )  ( <= ( + X13 16 ) X0 )  ( <= ( + Y0 60 ) Y13 )  ( <= ( + Y13 4 ) Y0 )  )
( or ( <= ( + X0 30 ) X14 )  ( <= ( + X14 24 ) X0 )  ( <= ( + Y0 60 ) Y14 )  ( <= ( + Y14 37 ) Y0 )  )
( or ( <= ( + X1 10 ) X2 )  ( <= ( + X2 69 ) X1 )  ( <= ( + Y1 54 ) Y2 )  ( <= ( + Y2 24 ) Y1 )  )
( or ( <= ( + X1 10 ) X3 )  ( <= ( + X3 62 ) X1 )  ( <= ( + Y1 54 ) Y3 )  ( <= ( + Y3 52 ) Y1 )  )
( or ( <= ( + X1 10 ) X4 )  ( <= ( + X4 87 ) X1 )  ( <= ( + Y1 54 ) Y4 )  ( <= ( + Y4 26 ) Y1 )  )
( or ( <= ( + X1 10 ) X5 )  ( <= ( + X5 66 ) X1 )  ( <= ( + Y1 54 ) Y5 )  ( <= ( + Y5 55 ) Y1 )  )
( or ( <= ( + X1 10 ) X6 )  ( <= ( + X6 80 ) X1 )  ( <= ( + Y1 54 ) Y6 )  ( <= ( + Y6 99 ) Y1 )  )
( or ( <= ( + X1 10 ) X7 )  ( <= ( + X7 37 ) X1 )  ( <= ( + Y1 54 ) Y7 )  ( <= ( + Y7 49 ) Y1 )  )
( or ( <= ( + X1 10 ) X8 )  ( <= ( + X8 55 ) X1 )  ( <= ( + Y1 54 ) Y8 )  ( <= ( + Y8 98 ) Y1 )  )
( or ( <= ( + X1 10 ) X9 )  ( <= ( + X9 76 ) X1 )  ( <= ( + Y1 54 ) Y9 )  ( <= ( + Y9 26 ) Y1 )  )
( or ( <= ( + X1 10 ) X10 )  ( <= ( + X10 43 ) X1 )  ( <= ( + Y1 54 ) Y10 )  ( <= ( + Y10 52 ) Y1 )  )
( or ( <= ( + X1 10 ) X11 )  ( <= ( + X11 78 ) X1 )  ( <= ( + Y1 54 ) Y11 )  ( <= ( + Y11 41 ) Y1 )  )
( or ( <= ( + X1 10 ) X12 )  ( <= ( + X12 100 ) X1 )  ( <= ( + Y1 54 ) Y12 )  ( <= ( + Y12 73 ) Y1 )  )
( or ( <= ( + X1 10 ) X13 )  ( <= ( + X13 16 ) X1 )  ( <= ( + Y1 54 ) Y13 )  ( <= ( + Y13 4 ) Y1 )  )
( or ( <= ( + X1 10 ) X14 )  ( <= ( + X14 24 ) X1 )  ( <= ( + Y1 54 ) Y14 )  ( <= ( + Y14 37 ) Y1 )  )
( or ( <= ( + X2 69 ) X3 )  ( <= ( + X3 62 ) X2 )  ( <= ( + Y2 24 ) Y3 )  ( <= ( + Y3 52 ) Y2 )  )
( or ( <= ( + X2 69 ) X4 )  ( <= ( + X4 87 ) X2 )  ( <= ( + Y2 24 ) Y4 )  ( <= ( + Y4 26 ) Y2 )  )
( or ( <= ( + X2 69 ) X5 )  ( <= ( + X5 66 ) X2 )  ( <= ( + Y2 24 ) Y5 )  ( <= ( + Y5 55 ) Y2 )  )
( or ( <= ( + X2 69 ) X6 )  ( <= ( + X6 80 ) X2 )  ( <= ( + Y2 24 ) Y6 )  ( <= ( + Y6 99 ) Y2 )  )
( or ( <= ( + X2 69 ) X7 )  ( <= ( + X7 37 ) X2 )  ( <= ( + Y2 24 ) Y7 )  ( <= ( + Y7 49 ) Y2 )  )
( or ( <= ( + X2 69 ) X8 )  ( <= ( + X8 55 ) X2 )  ( <= ( + Y2 24 ) Y8 )  ( <= ( + Y8 98 ) Y2 )  )
( or ( <= ( + X2 69 ) X9 )  ( <= ( + X9 76 ) X2 )  ( <= ( + Y2 24 ) Y9 )  ( <= ( + Y9 26 ) Y2 )  )
( or ( <= ( + X2 69 ) X10 )  ( <= ( + X10 43 ) X2 )  ( <= ( + Y2 24 ) Y10 )  ( <= ( + Y10 52 ) Y2 )  )
( or ( <= ( + X2 69 ) X11 )  ( <= ( + X11 78 ) X2 )  ( <= ( + Y2 24 ) Y11 )  ( <= ( + Y11 41 ) Y2 )  )
( or ( <= ( + X2 69 ) X12 )  ( <= ( + X12 100 ) X2 )  ( <= ( + Y2 24 ) Y12 )  ( <= ( + Y12 73 ) Y2 )  )
( or ( <= ( + X2 69 ) X13 )  ( <= ( + X13 16 ) X2 )  ( <= ( + Y2 24 ) Y13 )  ( <= ( + Y13 4 ) Y2 )  )
( or ( <= ( + X2 69 ) X14 )  ( <= ( + X14 24 ) X2 )  ( <= ( + Y2 24 ) Y14 )  ( <= ( + Y14 37 ) Y2 )  )
( or ( <= ( + X3 62 ) X4 )  ( <= ( + X4 87 ) X3 )  ( <= ( + Y3 52 ) Y4 )  ( <= ( + Y4 26 ) Y3 )  )
( or ( <= ( + X3 62 ) X5 )  ( <= ( + X5 66 ) X3 )  ( <= ( + Y3 52 ) Y5 )  ( <= ( + Y5 55 ) Y3 )  )
( or ( <= ( + X3 62 ) X6 )  ( <= ( + X6 80 ) X3 )  ( <= ( + Y3 52 ) Y6 )  ( <= ( + Y6 99 ) Y3 )  )
( or ( <= ( + X3 62 ) X7 )  ( <= ( + X7 37 ) X3 )  ( <= ( + Y3 52 ) Y7 )  ( <= ( + Y7 49 ) Y3 )  )
( or ( <= ( + X3 62 ) X8 )  ( <= ( + X8 55 ) X3 )  ( <= ( + Y3 52 ) Y8 )  ( <= ( + Y8 98 ) Y3 )  )
( or ( <= ( + X3 62 ) X9 )  ( <= ( + X9 76 ) X3 )  ( <= ( + Y3 52 ) Y9 )  ( <= ( + Y9 26 ) Y3 )  )
( or ( <= ( + X3 62 ) X10 )  ( <= ( + X10 43 ) X3 )  ( <= ( + Y3 52 ) Y10 )  ( <= ( + Y10 52 ) Y3 )  )
( or ( <= ( + X3 62 ) X11 )  ( <= ( + X11 78 ) X3 )  ( <= ( + Y3 52 ) Y11 )  ( <= ( + Y11 41 ) Y3 )  )
( or ( <= ( + X3 62 ) X12 )  ( <= ( + X12 100 ) X3 )  ( <= ( + Y3 52 ) Y12 )  ( <= ( + Y12 73 ) Y3 )  )
( or ( <= ( + X3 62 ) X13 )  ( <= ( + X13 16 ) X3 )  ( <= ( + Y3 52 ) Y13 )  ( <= ( + Y13 4 ) Y3 )  )
( or ( <= ( + X3 62 ) X14 )  ( <= ( + X14 24 ) X3 )  ( <= ( + Y3 52 ) Y14 )  ( <= ( + Y14 37 ) Y3 )  )
( or ( <= ( + X4 87 ) X5 )  ( <= ( + X5 66 ) X4 )  ( <= ( + Y4 26 ) Y5 )  ( <= ( + Y5 55 ) Y4 )  )
( or ( <= ( + X4 87 ) X6 )  ( <= ( + X6 80 ) X4 )  ( <= ( + Y4 26 ) Y6 )  ( <= ( + Y6 99 ) Y4 )  )
( or ( <= ( + X4 87 ) X7 )  ( <= ( + X7 37 ) X4 )  ( <= ( + Y4 26 ) Y7 )  ( <= ( + Y7 49 ) Y4 )  )
( or ( <= ( + X4 87 ) X8 )  ( <= ( + X8 55 ) X4 )  ( <= ( + Y4 26 ) Y8 )  ( <= ( + Y8 98 ) Y4 )  )
( or ( <= ( + X4 87 ) X9 )  ( <= ( + X9 76 ) X4 )  ( <= ( + Y4 26 ) Y9 )  ( <= ( + Y9 26 ) Y4 )  )
( or ( <= ( + X4 87 ) X10 )  ( <= ( + X10 43 ) X4 )  ( <= ( + Y4 26 ) Y10 )  ( <= ( + Y10 52 ) Y4 )  )
( or ( <= ( + X4 87 ) X11 )  ( <= ( + X11 78 ) X4 )  ( <= ( + Y4 26 ) Y11 )  ( <= ( + Y11 41 ) Y4 )  )
( or ( <= ( + X4 87 ) X12 )  ( <= ( + X12 100 ) X4 )  ( <= ( + Y4 26 ) Y12 )  ( <= ( + Y12 73 ) Y4 )  )
( or ( <= ( + X4 87 ) X13 )  ( <= ( + X13 16 ) X4 )  ( <= ( + Y4 26 ) Y13 )  ( <= ( + Y13 4 ) Y4 )  )
( or ( <= ( + X4 87 ) X14 )  ( <= ( + X14 24 ) X4 )  ( <= ( + Y4 26 ) Y14 )  ( <= ( + Y14 37 ) Y4 )  )
( or ( <= ( + X5 66 ) X6 )  ( <= ( + X6 80 ) X5 )  ( <= ( + Y5 55 ) Y6 )  ( <= ( + Y6 99 ) Y5 )  )
( or ( <= ( + X5 66 ) X7 )  ( <= ( + X7 37 ) X5 )  ( <= ( + Y5 55 ) Y7 )  ( <= ( + Y7 49 ) Y5 )  )
( or ( <= ( + X5 66 ) X8 )  ( <= ( + X8 55 ) X5 )  ( <= ( + Y5 55 ) Y8 )  ( <= ( + Y8 98 ) Y5 )  )
( or ( <= ( + X5 66 ) X9 )  ( <= ( + X9 76 ) X5 )  ( <= ( + Y5 55 ) Y9 )  ( <= ( + Y9 26 ) Y5 )  )
( or ( <= ( + X5 66 ) X10 )  ( <= ( + X10 43 ) X5 )  ( <= ( + Y5 55 ) Y10 )  ( <= ( + Y10 52 ) Y5 )  )
( or ( <= ( + X5 66 ) X11 )  ( <= ( + X11 78 ) X5 )  ( <= ( + Y5 55 ) Y11 )  ( <= ( + Y11 41 ) Y5 )  )
( or ( <= ( + X5 66 ) X12 )  ( <= ( + X12 100 ) X5 )  ( <= ( + Y5 55 ) Y12 )  ( <= ( + Y12 73 ) Y5 )  )
( or ( <= ( + X5 66 ) X13 )  ( <= ( + X13 16 ) X5 )  ( <= ( + Y5 55 ) Y13 )  ( <= ( + Y13 4 ) Y5 )  )
( or ( <= ( + X5 66 ) X14 )  ( <= ( + X14 24 ) X5 )  ( <= ( + Y5 55 ) Y14 )  ( <= ( + Y14 37 ) Y5 )  )
( or ( <= ( + X6 80 ) X7 )  ( <= ( + X7 37 ) X6 )  ( <= ( + Y6 99 ) Y7 )  ( <= ( + Y7 49 ) Y6 )  )
( or ( <= ( + X6 80 ) X8 )  ( <= ( + X8 55 ) X6 )  ( <= ( + Y6 99 ) Y8 )  ( <= ( + Y8 98 ) Y6 )  )
( or ( <= ( + X6 80 ) X9 )  ( <= ( + X9 76 ) X6 )  ( <= ( + Y6 99 ) Y9 )  ( <= ( + Y9 26 ) Y6 )  )
( or ( <= ( + X6 80 ) X10 )  ( <= ( + X10 43 ) X6 )  ( <= ( + Y6 99 ) Y10 )  ( <= ( + Y10 52 ) Y6 )  )
( or ( <= ( + X6 80 ) X11 )  ( <= ( + X11 78 ) X6 )  ( <= ( + Y6 99 ) Y11 )  ( <= ( + Y11 41 ) Y6 )  )
( or ( <= ( + X6 80 ) X12 )  ( <= ( + X12 100 ) X6 )  ( <= ( + Y6 99 ) Y12 )  ( <= ( + Y12 73 ) Y6 )  )
( or ( <= ( + X6 80 ) X13 )  ( <= ( + X13 16 ) X6 )  ( <= ( + Y6 99 ) Y13 )  ( <= ( + Y13 4 ) Y6 )  )
( or ( <= ( + X6 80 ) X14 )  ( <= ( + X14 24 ) X6 )  ( <= ( + Y6 99 ) Y14 )  ( <= ( + Y14 37 ) Y6 )  )
( or ( <= ( + X7 37 ) X8 )  ( <= ( + X8 55 ) X7 )  ( <= ( + Y7 49 ) Y8 )  ( <= ( + Y8 98 ) Y7 )  )
( or ( <= ( + X7 37 ) X9 )  ( <= ( + X9 76 ) X7 )  ( <= ( + Y7 49 ) Y9 )  ( <= ( + Y9 26 ) Y7 )  )
( or ( <= ( + X7 37 ) X10 )  ( <= ( + X10 43 ) X7 )  ( <= ( + Y7 49 ) Y10 )  ( <= ( + Y10 52 ) Y7 )  )
( or ( <= ( + X7 37 ) X11 )  ( <= ( + X11 78 ) X7 )  ( <= ( + Y7 49 ) Y11 )  ( <= ( + Y11 41 ) Y7 )  )
( or ( <= ( + X7 37 ) X12 )  ( <= ( + X12 100 ) X7 )  ( <= ( + Y7 49 ) Y12 )  ( <= ( + Y12 73 ) Y7 )  )
( or ( <= ( + X7 37 ) X13 )  ( <= ( + X13 16 ) X7 )  ( <= ( + Y7 49 ) Y13 )  ( <= ( + Y13 4 ) Y7 )  )
( or ( <= ( + X7 37 ) X14 )  ( <= ( + X14 24 ) X7 )  ( <= ( + Y7 49 ) Y14 )  ( <= ( + Y14 37 ) Y7 )  )
( or ( <= ( + X8 55 ) X9 )  ( <= ( + X9 76 ) X8 )  ( <= ( + Y8 98 ) Y9 )  ( <= ( + Y9 26 ) Y8 )  )
( or ( <= ( + X8 55 ) X10 )  ( <= ( + X10 43 ) X8 )  ( <= ( + Y8 98 ) Y10 )  ( <= ( + Y10 52 ) Y8 )  )
( or ( <= ( + X8 55 ) X11 )  ( <= ( + X11 78 ) X8 )  ( <= ( + Y8 98 ) Y11 )  ( <= ( + Y11 41 ) Y8 )  )
( or ( <= ( + X8 55 ) X12 )  ( <= ( + X12 100 ) X8 )  ( <= ( + Y8 98 ) Y12 )  ( <= ( + Y12 73 ) Y8 )  )
( or ( <= ( + X8 55 ) X13 )  ( <= ( + X13 16 ) X8 )  ( <= ( + Y8 98 ) Y13 )  ( <= ( + Y13 4 ) Y8 )  )
( or ( <= ( + X8 55 ) X14 )  ( <= ( + X14 24 ) X8 )  ( <= ( + Y8 98 ) Y14 )  ( <= ( + Y14 37 ) Y8 )  )
( or ( <= ( + X9 76 ) X10 )  ( <= ( + X10 43 ) X9 )  ( <= ( + Y9 26 ) Y10 )  ( <= ( + Y10 52 ) Y9 )  )
( or ( <= ( + X9 76 ) X11 )  ( <= ( + X11 78 ) X9 )  ( <= ( + Y9 26 ) Y11 )  ( <= ( + Y11 41 ) Y9 )  )
( or ( <= ( + X9 76 ) X12 )  ( <= ( + X12 100 ) X9 )  ( <= ( + Y9 26 ) Y12 )  ( <= ( + Y12 73 ) Y9 )  )
( or ( <= ( + X9 76 ) X13 )  ( <= ( + X13 16 ) X9 )  ( <= ( + Y9 26 ) Y13 )  ( <= ( + Y13 4 ) Y9 )  )
( or ( <= ( + X9 76 ) X14 )  ( <= ( + X14 24 ) X9 )  ( <= ( + Y9 26 ) Y14 )  ( <= ( + Y14 37 ) Y9 )  )
( or ( <= ( + X10 43 ) X11 )  ( <= ( + X11 78 ) X10 )  ( <= ( + Y10 52 ) Y11 )  ( <= ( + Y11 41 ) Y10 )  )
( or ( <= ( + X10 43 ) X12 )  ( <= ( + X12 100 ) X10 )  ( <= ( + Y10 52 ) Y12 )  ( <= ( + Y12 73 ) Y10 )  )
( or ( <= ( + X10 43 ) X13 )  ( <= ( + X13 16 ) X10 )  ( <= ( + Y10 52 ) Y13 )  ( <= ( + Y13 4 ) Y10 )  )
( or ( <= ( + X10 43 ) X14 )  ( <= ( + X14 24 ) X10 )  ( <= ( + Y10 52 ) Y14 )  ( <= ( + Y14 37 ) Y10 )  )
( or ( <= ( + X11 78 ) X12 )  ( <= ( + X12 100 ) X11 )  ( <= ( + Y11 41 ) Y12 )  ( <= ( + Y12 73 ) Y11 )  )
( or ( <= ( + X11 78 ) X13 )  ( <= ( + X13 16 ) X11 )  ( <= ( + Y11 41 ) Y13 )  ( <= ( + Y13 4 ) Y11 )  )
( or ( <= ( + X11 78 ) X14 )  ( <= ( + X14 24 ) X11 )  ( <= ( + Y11 41 ) Y14 )  ( <= ( + Y14 37 ) Y11 )  )
( or ( <= ( + X12 100 ) X13 )  ( <= ( + X13 16 ) X12 )  ( <= ( + Y12 73 ) Y13 )  ( <= ( + Y13 4 ) Y12 )  )
( or ( <= ( + X12 100 ) X14 )  ( <= ( + X14 24 ) X12 )  ( <= ( + Y12 73 ) Y14 )  ( <= ( + Y14 37 ) Y12 )  )
( or ( <= ( + X13 16 ) X14 )  ( <= ( + X14 24 ) X13 )  ( <= ( + Y13 4 ) Y14 )  ( <= ( + Y14 37 ) Y13 )  )
( >= X0 0)
( <= ( + X0 30) Z)
( >= Y0 0)
( <= ( + Y0 60 ) 193)
( >= X1 0)
( <= ( + X1 10) Z)
( >= Y1 0)
( <= ( + Y1 54 ) 193)
( >= X2 0)
( <= ( + X2 69) Z)
( >= Y2 0)
( <= ( + Y2 24 ) 193)
( >= X3 0)
( <= ( + X3 62) Z)
( >= Y3 0)
( <= ( + Y3 52 ) 193)
( >= X4 0)
( <= ( + X4 87) Z)
( >= Y4 0)
( <= ( + Y4 26 ) 193)
( >= X5 0)
( <= ( + X5 66) Z)
( >= Y5 0)
( <= ( + Y5 55 ) 193)
( >= X6 0)
( <= ( + X6 80) Z)
( >= Y6 0)
( <= ( + Y6 99 ) 193)
( >= X7 0)
( <= ( + X7 37) Z)
( >= Y7 0)
( <= ( + Y7 49 ) 193)
( >= X8 0)
( <= ( + X8 55) Z)
( >= Y8 0)
( <= ( + Y8 98 ) 193)
( >= X9 0)
( <= ( + X9 76) Z)
( >= Y9 0)
( <= ( + Y9 26 ) 193)
( >= X10 0)
( <= ( + X10 43) Z)
( >= Y10 0)
( <= ( + Y10 52 ) 193)
( >= X11 0)
( <= ( + X11 78) Z)
( >= Y11 0)
( <= ( + Y11 41 ) 193)
( >= X12 0)
( <= ( + X12 100) Z)
( >= Y12 0)
( <= ( + Y12 73 ) 193)
( >= X13 0)
( <= ( + X13 16) Z)
( >= Y13 0)
( <= ( + Y13 4 ) 193)
( >= X14 0)
( <= ( + X14 24) Z)
( >= Y14 0)
( <= ( + Y14 37 ) 193)
) )
)(=> $phi $goal))))